1, 18, 2, 3, 7, 8, 13, 10, 11, 12, 9, 5, 6, 4, 16, 14, 1
1, 38, 40, 41, 49, 48, 50, 51, 43, 39, 33, 1
1, 15, 52, 53, 22, 30, 21, 27, 28, 29, 42, 35, 34, 20, 19, 1
1, 36, 31, 32, 24, 37, 47, 46, 45, 44, 25, 23, 26, 17, 1
